GLPSOL--GLPK LP/MIP Solver 5.0
Parameter(s) specified in the command line:
 --lp ../modeles/20_134.lp --log 20_134.log
Reading problem data from '../modeles/20_134.lp'...
2761 rows, 5400 columns, 18820 non-zeros
2680 integer variables, all of which are binary
8187 lines were read
GLPK Integer Optimizer 5.0
2761 rows, 5400 columns, 18820 non-zeros
2680 integer variables, all of which are binary
Preprocessing...
2680 constraint coefficient(s) were reduced
2761 rows, 5380 columns, 18800 non-zeros
2680 integer variables, all of which are binary
Scaling...
 A: min|aij| =  8.911e-04  max|aij| =  4.000e+00  ratio =  4.489e+03
GM: min|aij| =  1.222e-01  max|aij| =  8.185e+00  ratio =  6.700e+01
EQ: min|aij| =  1.493e-02  max|aij| =  1.000e+00  ratio =  6.700e+01
2N: min|aij| =  1.426e-02  max|aij| =  1.726e+00  ratio =  1.211e+02
Constructing initial basis...
Size of triangular part is 2761
Solving LP relaxation...
GLPK Simplex Optimizer 5.0
2761 rows, 5380 columns, 18800 non-zeros
      0: obj =   4.000000000e+01 inf =   9.950e+01 (41)
Perturbing LP to avoid stalling [199]...
    339: obj =  -4.068316059e-01 inf =   0.000e+00 (0)
Removing LP perturbation [1053]...
*  1053: obj =  -4.462189055e+00 inf =   6.149e-16 (0) 1
OPTIMAL LP SOLUTION FOUND
Integer optimization begins...
Long-step dual simplex will be used
+  1053: mip =     not found yet >=              -inf        (1; 0)
+  1075: >>>>>  -4.462189055e+00 >=  -4.462189055e+00 < 0.1% (21; 0)
+  1075: mip =  -4.462189055e+00 >=     tree is empty   0.0% (0; 41)
INTEGER OPTIMAL SOLUTION FOUND
Time used:   0.2 secs
Memory used: 8.1 Mb (8521174 bytes)
